p cnf 386 460
-5 20 17 21 22 0
-5 20 17 21 -22 0
-5 20 17 -21 23 0
-5 20 17 -21 -23 0
-11 -19 4 24 25 0
-11 -19 4 24 -25 0
-11 -19 4 -24 26 0
-11 -19 4 -24 -26 0
8 3 7 27 28 0
8 3 7 27 -28 0
8 3 7 -27 29 0
8 3 7 -27 -29 0
-20 1 -4 30 31 0
-20 1 -4 30 -31 0
-20 1 -4 -30 32 0
-20 1 -4 -30 -32 0
-8 13 -12 33 34 0
-8 13 -12 33 -34 0
-8 13 -12 -33 35 0
-8 13 -12 -33 -35 0
-2 11 20 36 37 0
-2 11 20 36 -37 0
-2 11 20 -36 38 0
-2 11 20 -36 -38 0
7 13 -6 39 40 0
7 13 -6 39 -40 0
7 13 -6 -39 41 0
7 13 -6 -39 -41 0
-13 12 1 42 43 0
-13 12 1 42 -43 0
-13 12 1 -42 44 0
-13 12 1 -42 -44 0
-20 -8 -4 45 46 0
-20 -8 -4 45 -46 0
-20 -8 -4 -45 47 0
-20 -8 -4 -45 -47 0
-4 -9 8 48 49 0
-4 -9 8 48 -49 0
-4 -9 8 -48 50 0
-4 -9 8 -48 -50 0
-1 5 -7 51 52 0
-1 5 -7 51 -52 0
-1 5 -7 -51 53 0
-1 5 -7 -51 -53 0
6 -19 15 54 55 0
6 -19 15 54 -55 0
6 -19 15 -54 56 0
6 -19 15 -54 -56 0
-14 18 8 57 58 0
-14 18 8 57 -58 0
-14 18 8 -57 59 0
-14 18 8 -57 -59 0
14 12 11 60 61 0
14 12 11 60 -61 0
14 12 11 -60 62 0
14 12 11 -60 -62 0
-13 16 15 63 64 0
-13 16 15 63 -64 0
-13 16 15 -63 65 0
-13 16 15 -63 -65 0
-12 15 10 66 67 0
-12 15 10 66 -67 0
-12 15 10 -66 68 0
-12 15 10 -66 -68 0
-17 20 -2 69 70 0
-17 20 -2 69 -70 0
-17 20 -2 -69 71 0
-17 20 -2 -69 -71 0
20 -16 -7 72 73 0
20 -16 -7 72 -73 0
20 -16 -7 -72 74 0
20 -16 -7 -72 -74 0
-3 -11 -5 75 76 0
-3 -11 -5 75 -76 0
-3 -11 -5 -75 77 0
-3 -11 -5 -75 -77 0
-5 14 6 78 79 0
-5 14 6 78 -79 0
-5 14 6 -78 80 0
-5 14 6 -78 -80 0
-9 -18 -20 81 82 0
-9 -18 -20 81 -82 0
-9 -18 -20 -81 83 0
-9 -18 -20 -81 -83 0
-18 -2 9 84 85 0
-18 -2 9 84 -85 0
-18 -2 9 -84 86 0
-18 -2 9 -84 -86 0
-16 15 5 87 88 0
-16 15 5 87 -88 0
-16 15 5 -87 89 0
-16 15 5 -87 -89 0
6 14 20 90 91 0
6 14 20 90 -91 0
6 14 20 -90 92 0
6 14 20 -90 -92 0
-17 -10 1 93 94 0
-17 -10 1 93 -94 0
-17 -10 1 -93 95 0
-17 -10 1 -93 -95 0
-17 -15 9 96 97 0
-17 -15 9 96 -97 0
-17 -15 9 -96 98 0
-17 -15 9 -96 -98 0
-13 16 12 99 100 0
-13 16 12 99 -100 0
-13 16 12 -99 101 0
-13 16 12 -99 -101 0
12 -16 -6 102 103 0
12 -16 -6 102 -103 0
12 -16 -6 -102 104 0
12 -16 -6 -102 -104 0
18 19 -15 105 106 0
18 19 -15 105 -106 0
18 19 -15 -105 107 0
18 19 -15 -105 -107 0
12 -4 10 108 109 0
12 -4 10 108 -109 0
12 -4 10 -108 110 0
12 -4 10 -108 -110 0
4 -1 -19 111 112 0
4 -1 -19 111 -112 0
4 -1 -19 -111 113 0
4 -1 -19 -111 -113 0
-18 -5 10 114 115 0
-18 -5 10 114 -115 0
-18 -5 10 -114 116 0
-18 -5 10 -114 -116 0
-14 4 -7 117 118 0
-14 4 -7 117 -118 0
-14 4 -7 -117 119 0
-14 4 -7 -117 -119 0
-15 2 13 120 121 0
-15 2 13 120 -121 0
-15 2 13 -120 122 0
-15 2 13 -120 -122 0
-7 -8 -13 123 124 0
-7 -8 -13 123 -124 0
-7 -8 -13 -123 125 0
-7 -8 -13 -123 -125 0
19 -1 -17 126 127 0
19 -1 -17 126 -127 0
19 -1 -17 -126 128 0
19 -1 -17 -126 -128 0
3 17 1 129 130 0
3 17 1 129 -130 0
3 17 1 -129 131 0
3 17 1 -129 -131 0
-14 -12 8 132 133 0
-14 -12 8 132 -133 0
-14 -12 8 -132 134 0
-14 -12 8 -132 -134 0
-5 -16 18 135 136 0
-5 -16 18 135 -136 0
-5 -16 18 -135 137 0
-5 -16 18 -135 -137 0
7 8 -13 138 139 0
7 8 -13 138 -139 0
7 8 -13 -138 140 0
7 8 -13 -138 -140 0
-20 -8 10 141 142 0
-20 -8 10 141 -142 0
-20 -8 10 -141 143 0
-20 -8 10 -141 -143 0
8 -16 18 144 145 0
8 -16 18 144 -145 0
8 -16 18 -144 146 0
8 -16 18 -144 -146 0
-10 11 -17 147 148 0
-10 11 -17 147 -148 0
-10 11 -17 -147 149 0
-10 11 -17 -147 -149 0
3 6 1 150 151 0
3 6 1 150 -151 0
3 6 1 -150 152 0
3 6 1 -150 -152 0
-12 13 14 153 154 0
-12 13 14 153 -154 0
-12 13 14 -153 155 0
-12 13 14 -153 -155 0
13 8 -15 156 157 0
13 8 -15 156 -157 0
13 8 -15 -156 158 0
13 8 -15 -156 -158 0
-17 -14 -5 159 160 0
-17 -14 -5 159 -160 0
-17 -14 -5 -159 161 0
-17 -14 -5 -159 -161 0
4 15 -11 162 163 0
4 15 -11 162 -163 0
4 15 -11 -162 164 0
4 15 -11 -162 -164 0
-10 -12 -14 165 166 0
-10 -12 -14 165 -166 0
-10 -12 -14 -165 167 0
-10 -12 -14 -165 -167 0
8 -10 -1 168 169 0
8 -10 -1 168 -169 0
8 -10 -1 -168 170 0
8 -10 -1 -168 -170 0
-18 7 -3 171 172 0
-18 7 -3 171 -172 0
-18 7 -3 -171 173 0
-18 7 -3 -171 -173 0
-16 -5 -9 174 175 0
-16 -5 -9 174 -175 0
-16 -5 -9 -174 176 0
-16 -5 -9 -174 -176 0
-9 10 16 177 178 0
-9 10 16 177 -178 0
-9 10 16 -177 179 0
-9 10 16 -177 -179 0
5 -16 1 180 181 0
5 -16 1 180 -181 0
5 -16 1 -180 182 0
5 -16 1 -180 -182 0
12 -19 9 183 184 0
12 -19 9 183 -184 0
12 -19 9 -183 185 0
12 -19 9 -183 -185 0
-19 18 4 186 187 0
-19 18 4 186 -187 0
-19 18 4 -186 188 0
-19 18 4 -186 -188 0
13 16 8 189 190 0
13 16 8 189 -190 0
13 16 8 -189 191 0
13 16 8 -189 -191 0
12 -19 -15 192 193 0
12 -19 -15 192 -193 0
12 -19 -15 -192 194 0
12 -19 -15 -192 -194 0
-13 -18 14 195 196 0
-13 -18 14 195 -196 0
-13 -18 14 -195 197 0
-13 -18 14 -195 -197 0
1 -11 -2 198 199 0
1 -11 -2 198 -199 0
1 -11 -2 -198 200 0
1 -11 -2 -198 -200 0
11 10 -14 201 202 0
11 10 -14 201 -202 0
11 10 -14 -201 203 0
11 10 -14 -201 -203 0
-19 -6 5 204 205 0
-19 -6 5 204 -205 0
-19 -6 5 -204 206 0
-19 -6 5 -204 -206 0
-11 15 5 207 208 0
-11 15 5 207 -208 0
-11 15 5 -207 209 0
-11 15 5 -207 -209 0
11 5 -16 210 211 0
11 5 -16 210 -211 0
11 5 -16 -210 212 0
11 5 -16 -210 -212 0
-5 14 -1 213 214 0
-5 14 -1 213 -214 0
-5 14 -1 -213 215 0
-5 14 -1 -213 -215 0
-4 15 -2 216 217 0
-4 15 -2 216 -217 0
-4 15 -2 -216 218 0
-4 15 -2 -216 -218 0
-15 -20 -17 219 220 0
-15 -20 -17 219 -220 0
-15 -20 -17 -219 221 0
-15 -20 -17 -219 -221 0
-9 10 -7 222 223 0
-9 10 -7 222 -223 0
-9 10 -7 -222 224 0
-9 10 -7 -222 -224 0
15 18 10 225 226 0
15 18 10 225 -226 0
15 18 10 -225 227 0
15 18 10 -225 -227 0
-7 16 9 228 229 0
-7 16 9 228 -229 0
-7 16 9 -228 230 0
-7 16 9 -228 -230 0
4 -15 -3 231 232 0
4 -15 -3 231 -232 0
4 -15 -3 -231 233 0
4 -15 -3 -231 -233 0
-16 -15 10 234 235 0
-16 -15 10 234 -235 0
-16 -15 10 -234 236 0
-16 -15 10 -234 -236 0
-3 2 9 237 238 0
-3 2 9 237 -238 0
-3 2 9 -237 239 0
-3 2 9 -237 -239 0
11 7 20 240 241 0
11 7 20 240 -241 0
11 7 20 -240 242 0
11 7 20 -240 -242 0
-9 -15 -17 243 244 0
-9 -15 -17 243 -244 0
-9 -15 -17 -243 245 0
-9 -15 -17 -243 -245 0
-18 -19 12 246 247 0
-18 -19 12 246 -247 0
-18 -19 12 -246 248 0
-18 -19 12 -246 -248 0
14 15 -1 249 250 0
14 15 -1 249 -250 0
14 15 -1 -249 251 0
14 15 -1 -249 -251 0
-6 12 15 252 253 0
-6 12 15 252 -253 0
-6 12 15 -252 254 0
-6 12 15 -252 -254 0
-16 -17 -11 255 256 0
-16 -17 -11 255 -256 0
-16 -17 -11 -255 257 0
-16 -17 -11 -255 -257 0
-17 6 14 258 259 0
-17 6 14 258 -259 0
-17 6 14 -258 260 0
-17 6 14 -258 -260 0
11 1 6 261 262 0
11 1 6 261 -262 0
11 1 6 -261 263 0
11 1 6 -261 -263 0
9 -14 1 264 265 0
9 -14 1 264 -265 0
9 -14 1 -264 266 0
9 -14 1 -264 -266 0
-3 1 18 267 268 0
-3 1 18 267 -268 0
-3 1 18 -267 269 0
-3 1 18 -267 -269 0
13 -4 8 270 271 0
13 -4 8 270 -271 0
13 -4 8 -270 272 0
13 -4 8 -270 -272 0
6 -4 19 273 274 0
6 -4 19 273 -274 0
6 -4 19 -273 275 0
6 -4 19 -273 -275 0
9 18 12 276 277 0
9 18 12 276 -277 0
9 18 12 -276 278 0
9 18 12 -276 -278 0
-4 -11 1 279 280 0
-4 -11 1 279 -280 0
-4 -11 1 -279 281 0
-4 -11 1 -279 -281 0
-13 -11 -19 282 283 0
-13 -11 -19 282 -283 0
-13 -11 -19 -282 284 0
-13 -11 -19 -282 -284 0
3 -5 19 285 286 0
3 -5 19 285 -286 0
3 -5 19 -285 287 0
3 -5 19 -285 -287 0
-9 -20 -2 288 289 0
-9 -20 -2 288 -289 0
-9 -20 -2 -288 290 0
-9 -20 -2 -288 -290 0
-6 -9 3 291 292 0
-6 -9 3 291 -292 0
-6 -9 3 -291 293 0
-6 -9 3 -291 -293 0
294 295 297 301 309 0
294 295 297 301 -309 0
294 295 297 -301 310 0
294 295 297 -301 -310 0
294 295 -297 302 311 0
294 295 -297 302 -311 0
294 295 -297 -302 312 0
294 295 -297 -302 -312 0
294 -295 298 303 313 0
294 -295 298 303 -313 0
294 -295 298 -303 314 0
294 -295 298 -303 -314 0
294 -295 -298 304 315 0
294 -295 -298 304 -315 0
294 -295 -298 -304 316 0
294 -295 -298 -304 -316 0
-294 296 299 305 317 0
-294 296 299 305 -317 0
-294 296 299 -305 318 0
-294 296 299 -305 -318 0
-294 296 -299 306 319 0
-294 296 -299 306 -319 0
-294 296 -299 -306 320 0
-294 296 -299 -306 -320 0
-294 -296 300 307 321 0
-294 -296 300 307 -321 0
-294 -296 300 -307 322 0
-294 -296 300 -307 -322 0
-294 -296 -300 308 323 0
-294 -296 -300 308 -323 0
-294 -296 -300 -308 324 0
-294 -296 -300 -308 -324 0
325 326 328 332 340 0
325 326 328 332 -340 0
325 326 328 -332 341 0
325 326 328 -332 -341 0
325 326 -328 333 342 0
325 326 -328 333 -342 0
325 326 -328 -333 343 0
325 326 -328 -333 -343 0
325 -326 329 334 344 0
325 -326 329 334 -344 0
325 -326 329 -334 345 0
325 -326 329 -334 -345 0
325 -326 -329 335 346 0
325 -326 -329 335 -346 0
325 -326 -329 -335 347 0
325 -326 -329 -335 -347 0
-325 327 330 336 348 0
-325 327 330 336 -348 0
-325 327 330 -336 349 0
-325 327 330 -336 -349 0
-325 327 -330 337 350 0
-325 327 -330 337 -350 0
-325 327 -330 -337 351 0
-325 327 -330 -337 -351 0
-325 -327 331 338 352 0
-325 -327 331 338 -352 0
-325 -327 331 -338 353 0
-325 -327 331 -338 -353 0
-325 -327 -331 339 354 0
-325 -327 -331 339 -354 0
-325 -327 -331 -339 355 0
-325 -327 -331 -339 -355 0
356 357 359 363 371 0
356 357 359 363 -371 0
356 357 359 -363 372 0
356 357 359 -363 -372 0
356 357 -359 364 373 0
356 357 -359 364 -373 0
356 357 -359 -364 374 0
356 357 -359 -364 -374 0
356 -357 360 365 375 0
356 -357 360 365 -375 0
356 -357 360 -365 376 0
356 -357 360 -365 -376 0
356 -357 -360 366 377 0
356 -357 -360 366 -377 0
356 -357 -360 -366 378 0
356 -357 -360 -366 -378 0
-356 358 361 367 379 0
-356 358 361 367 -379 0
-356 358 361 -367 380 0
-356 358 361 -367 -380 0
-356 358 -361 368 381 0
-356 358 -361 368 -381 0
-356 358 -361 -368 382 0
-356 358 -361 -368 -382 0
-356 -358 362 369 383 0
-356 -358 362 369 -383 0
-356 -358 362 -369 384 0
-356 -358 362 -369 -384 0
-356 -358 -362 370 385 0
-356 -358 -362 370 -385 0
-356 -358 -362 -370 386 0
-356 -358 -362 -370 -386 0

